p cnf 7230 16
-337 -2978 -3368 0
-335 -2976 -3366 0
-333 -2986 -3364 0
-331 -2984 -3362 0
337 -3369 0
335 -3367 0
333 -3365 0
331 -3363 0
3368 3369 0
3366 3367 0
3364 3365 0
3362 3363 0
2978 -3369 0
2976 -3367 0
2986 -3365 0
2984 -3363 0
